(declare-fun ExpandObjSwitcher () Real)
(declare-fun CreateAsClass () Bool)
(declare-fun ExpandObjSwitcher_2 () Real)
(declare-fun Constructed_Argument_t () String)
(declare-fun Constructed_Argument_2_t () String)
(assert (= ExpandObjSwitcher 8.0))
(assert (not CreateAsClass))
(assert (= ExpandObjSwitcher_2 1.0))
(assert (not (= Constructed_Argument_t "string")))
(assert (not (= Constructed_Argument_t "number")))
(assert (not (= Constructed_Argument_t "boolean")))
(assert (not (= Constructed_Argument_t "object")))
(assert (not (= Constructed_Argument_t "array_number")))
(assert (not (= Constructed_Argument_t "array_string")))
(assert (not (= Constructed_Argument_t "array_bool")))
(assert (not (= Constructed_Argument_t "null")))
(assert (not (= Constructed_Argument_2_t "string")))
(assert (not (= Constructed_Argument_2_t "number")))
(assert (not (= Constructed_Argument_2_t "boolean")))
(assert (= Constructed_Argument_2_t "object"))
(check-sat)
